(set-logic HORN)
(declare-fun state (Int (Array Int Int) (Array Int Int) (Array Int Int) (Array Int Int) Int Int (Array Int Int) (Array Int Int) Int Int Int Int Int Int Int Int Int Int Int Int Int Int Int Int Int Int Int Int Int Bool Bool Bool Bool Bool (Array Int Int)) Bool)
(assert (forall ((|A_27| Int) (|B_27| (Array Int Int)) (|C_27| (Array Int Int)) (|D_27| (Array Int Int)) (|E_27| (Array Int Int)) (|F_27| Int) (|G_27| Int) (|H_27| (Array Int Int)) (|I_27| (Array Int Int)) (|J_27| Int) (|K_27| Int) (|L_27| Int) (|M_27| Int) (|N_27| Int) (|O_27| Int) (|P_27| Int) (|Q_27| Int) (|R_27| Int) (|S_27| Int) (|T_27| Int) (|U_27| Int) (|V_27| Int) (|W_27| Int) (|X_27| Int) (|Y_27| Int) (|Z_27| Int) (|A1_27| Int) (|B1_27| Int) (|C1_27| Int) (|D1_27| Int) (|F1_15| Bool) (|.loc.5| Bool) (|.loc.6| Bool) (|.loc.7| Bool) (|.loc.8| Bool) (|F1_0| (Array Int Int)) (|.x.829| Int) (|.x.827| (Array Int Int)) (|.x.825| Int) (|.x.823| (Array Int Int)) (|.x.819| Int) (|.x.821| (Array Int Int)) (|.x.820| (Array Int Int)) (|E1_27| Bool) (|.x.830| Int) (|.x.834| Int) (|.x.840| Int) (|.x.841| Int) (|.x.843| Int) (|.x.846| Int) (|.loc.10| Bool) (|.x.839| Int) (|.x.831| Int) (|.x.844| Int) (|.loc.11| Bool) (|.loc.9| Bool) (|.x.837| Int) (|.x.836| Int) (|.x.833| Int) (|.x.822| (Array Int Int)) (|.x.838| Int) (|.x.845| Int) (|.x.847| Int) (|.loc.12| Bool) (|.x.848| Int) (|.x.832| Int) (|.x.842| Int) (|.x.835| Int) (|.x.828| Int) (|.x.824| Int) (|.x.826| (Array Int Int)) (|.xtv.1| (Array Int Int))) (=> (and (and (and (and .loc.5 (not .loc.6)) (not .loc.7)) (not .loc.8)) (and (and (and (and (and (= D_27 E_27) (not F1_15)) (= J_27 K_27)) (= F_27 G_27)) (= H_27 I_27)) (= B_27 C_27))) (state |A_27| |B_27| |C_27| |D_27| |E_27| |F_27| |G_27| |H_27| |I_27| |J_27| |K_27| |L_27| |M_27| |N_27| |O_27| |P_27| |Q_27| |R_27| |S_27| |T_27| |U_27| |V_27| |W_27| |X_27| |Y_27| |Z_27| |A1_27| |B1_27| |C1_27| |D1_27| |F1_15| |.loc.5| |.loc.6| |.loc.7| |.loc.8| |F1_0|))))
(assert (forall ((|A_27| Int) (|B_27| (Array Int Int)) (|C_27| (Array Int Int)) (|D_27| (Array Int Int)) (|E_27| (Array Int Int)) (|F_27| Int) (|G_27| Int) (|H_27| (Array Int Int)) (|I_27| (Array Int Int)) (|J_27| Int) (|K_27| Int) (|L_27| Int) (|M_27| Int) (|N_27| Int) (|O_27| Int) (|P_27| Int) (|Q_27| Int) (|R_27| Int) (|S_27| Int) (|T_27| Int) (|U_27| Int) (|V_27| Int) (|W_27| Int) (|X_27| Int) (|Y_27| Int) (|Z_27| Int) (|A1_27| Int) (|B1_27| Int) (|C1_27| Int) (|D1_27| Int) (|F1_15| Bool) (|.loc.5| Bool) (|.loc.6| Bool) (|.loc.7| Bool) (|.loc.8| Bool) (|F1_0| (Array Int Int)) (|.x.829| Int) (|.x.827| (Array Int Int)) (|.x.825| Int) (|.x.823| (Array Int Int)) (|.x.819| Int) (|.x.821| (Array Int Int)) (|.x.820| (Array Int Int)) (|E1_27| Bool) (|.x.830| Int) (|.x.834| Int) (|.x.840| Int) (|.x.841| Int) (|.x.843| Int) (|.x.846| Int) (|.loc.10| Bool) (|.x.839| Int) (|.x.831| Int) (|.x.844| Int) (|.loc.11| Bool) (|.loc.9| Bool) (|.x.837| Int) (|.x.836| Int) (|.x.833| Int) (|.x.822| (Array Int Int)) (|.x.838| Int) (|.x.845| Int) (|.x.847| Int) (|.loc.12| Bool) (|.x.848| Int) (|.x.832| Int) (|.x.842| Int) (|.x.835| Int) (|.x.828| Int) (|.x.824| Int) (|.x.826| (Array Int Int)) (|.xtv.1| (Array Int Int))) (=> (and (state |A_27| |B_27| |C_27| |D_27| |E_27| |F_27| |G_27| |H_27| |I_27| |J_27| |K_27| |L_27| |M_27| |N_27| |O_27| |P_27| |Q_27| |R_27| |S_27| |T_27| |U_27| |V_27| |W_27| |X_27| |Y_27| |Z_27| |A1_27| |B1_27| |C1_27| |D1_27| |F1_15| |.loc.5| |.loc.6| |.loc.7| |.loc.8| |F1_0|) (let ((.def_46 (not .loc.6))) (let ((.def_48 (not .loc.7))) (let ((.def_50 (not .loc.8))) (let ((.def_82 (= B_27 .x.820))) (let ((.def_86 (= L_27 .x.830))) (let ((.def_89 (= P_27 .x.834))) (let ((.def_92 (= V_27 .x.840))) (let ((.def_95 (= W_27 .x.841))) (let ((.def_98 (= Y_27 .x.843))) (let ((.def_101 (= B1_27 .x.846))) (let ((.def_103 (not .loc.5))) (let ((.def_115 (= F1_15 E1_27))) (let ((.def_123 (= M_27 0))) (let ((.def_125 (and .def_82 .def_86))) (let ((.def_130 (and .def_101 (and .def_98 (and .def_95 (and .def_92 (and .def_89 .def_125))))))) (let ((.def_134 (not .loc.10))) (let ((.def_140 (= U_27 .x.839))) (let ((.def_142 (= M_27 .x.831))) (let ((.def_145 (= Z_27 .x.844))) (let ((.def_150 (not .loc.9))) (let ((.def_156 (select D_27 Y_27))) (let ((.def_165 (<= 100000 S_27))) (let ((.def_178 (not .loc.11))) (let ((.def_183 (= S_27 .x.837))) (let ((.def_185 (= R_27 .x.836))) (let ((.def_194 (and .def_125 .def_142))) (let ((.def_195 (and .def_89 .def_194))) (let ((.def_213 (and .def_185 .def_195))) (let ((.def_230 (and F1_15 .def_82))) (let ((.def_241 (and .def_101 (and .def_145 (and .def_98 (and .def_95 (and .def_92 (and .def_140 (and .def_183 (and .def_185 (and .def_89 (and .def_142 (and .def_86 .def_230))))))))))))) (let ((.def_252 (and .def_183 .def_213))) (let ((.def_258 (and .def_101 (and .def_145 (and .def_98 (and .def_95 (and .def_92 (and .def_140 .def_252)))))))) (let ((.def_280 (and .def_46 (and .def_103 (and .loc.8 .def_258))))) (let ((.def_286 (<= 100000 O_27))) (let ((.def_287 (or F1_15 .def_286))) (let ((.def_291 (= O_27 .x.833))) (let ((.def_293 (= D_27 .x.822))) (let ((.def_296 (= T_27 .x.838))) (let ((.def_299 (= A1_27 .x.845))) (let ((.def_302 (= C1_27 .x.847))) (let ((.def_307 (+ (* 4 O_27) B1_27))) (let ((.def_308 (select .def_156 .def_307))) (let ((.def_310 (select D_27 V_27))) (let ((.def_311 (select .def_310 (+ L_27 (* 4 O_27))))) (let ((.def_317 (not .def_286))) (let ((.def_327 (= (+ O_27 (* (- 1) .x.833)) (- 1)))) (let ((.def_328 (or E1_27 .def_327))) (let ((.def_338 (and .def_142 (and .def_86 (and .def_82 .def_293))))) (let ((.def_351 (and .def_302 (and .def_101 (and .def_299 (and .def_145 (and .def_98 (and .def_95 (and .def_92 (and .def_140 (and .def_296 (and .def_183 (and .def_185 (and .def_89 (and .def_291 .def_338))))))))))))))) (let ((.def_360 (not .loc.12))) (let ((.def_366 (and .def_142 (and .def_86 (and .def_230 .def_293))))) (let ((.def_379 (and .def_302 (and .def_101 (and .def_299 (and .def_145 (and .def_98 (and .def_95 (and .def_92 (and .def_140 (and .def_296 (and .def_183 (and .def_185 (and .def_89 (and .def_291 .def_366))))))))))))))) (let ((.def_411 (= .x.833 0))) (let ((.def_412 (or F1_15 .def_411))) (let ((.def_437 (= D1_27 .x.848))) (let ((.def_439 (= N_27 .x.832))) (let ((.def_469 (and .def_338 .def_439))) (let ((.def_470 (and .def_89 .def_469))) (let ((.def_496 (and .def_89 (and .def_291 (and .def_366 .def_439))))) (let ((.def_520 (and .def_89 (and .def_291 .def_469)))) (let ((.def_545 (= X_27 .x.842))) (let ((.def_547 (= Q_27 .x.835))) (let ((.def_556 (and .def_89 (and .def_194 .def_439)))) (let ((.def_722 (store F1_0 .x.840 1))) (and (and (= K_27 .x.829) (and (= I_27 .x.827) (and (= G_27 .x.825) (and (= E_27 .x.823) (and (= A_27 .x.819) (= C_27 .x.821)))))) (or (and (or (or (or (or (or (and (or (or (or (or (and (or (or (or (or (or (and (or (and (or (or (or (or (or (or (and (or (and (or (and (or (and (and (and (and (and (and (and (and .def_82 E1_27) .def_86) .def_89) .def_92) .def_95) .def_98) .def_101) .def_103) (and (or F1_15 (and (= .x.841 0) (= .x.820 (store (store B_27 V_27 0) Y_27 0)))) (and (and .loc.5 (or E1_27 (= .x.834 .x.841))) .def_115))) (and (and .loc.7 .def_46) .loc.10)) (and (or F1_15 .def_123) (and .def_48 (and (and .def_115 (and .loc.6 (and .loc.5 .def_130))) .def_134)))) (and (and (and (and .def_140 .def_142) .def_145) .loc.11) .def_150)) (and (or F1_15 (and (= .x.839 (select .def_156 (+ (* 4 S_27) B1_27))) (and (= .x.844 (ite (= S_27 .x.839) 1 0)) (and (not .def_165) (= .x.831 .x.844))))) (and (and .def_48 (and .def_115 (and .loc.10 (and .loc.9 (and .def_103 (and .loc.6 .def_130)))))) .def_178))) (and .loc.8 (and .def_183 .def_185))) (and (or E1_27 (= (+ S_27 (* (- 1) .x.837)) (- 1))) (and .def_50 (and .def_178 (and .def_48 (and .def_115 (and .def_150 (and .loc.10 (and .def_46 (and .def_103 (and .def_101 (and .def_145 (and .def_98 (and .def_95 (and .def_92 .def_195))))))))))))))) (and (or F1_15 (= .x.837 0)) (and .def_178 (and .def_48 (and .def_115 (and .def_150 (and .loc.10 (and .def_46 (and .loc.8 (and .loc.5 (and .def_101 (and .def_145 (and .def_98 (and .def_95 (and .def_92 (and .def_140 .def_213)))))))))))))))) (and .def_48 (and .def_134 (and .def_115 (and .loc.11 (and .loc.9 (and .def_103 (and .loc.8 (and .loc.6 .def_241))))))))) (and (or F1_15 .def_165) (and .def_48 (and .def_134 (and .def_115 (and .loc.11 (and .loc.9 (and .def_103 (and .loc.8 (and .loc.6 .def_258)))))))))) (and .def_178 (and .def_48 (and .def_134 (and .def_115 (and .loc.9 (and .def_46 (and .def_103 (and .loc.8 .def_241))))))))) (and (and .def_178 (and .def_48 (and .def_134 (and .def_115 (and .loc.9 .def_280))))) .def_287)) (and (and (and (and .def_291 .def_293) .def_296) .def_299) .def_302)) (and (or F1_15 (and (= .x.822 (store D_27 Y_27 (store .def_156 .def_307 (+ .def_308 (* (- 1) .def_311))))) .def_317)) (and (and .def_178 (and .def_48 (and .def_134 (and .def_115 (and .def_150 .def_280))))) .def_328))) .loc.12) (and (or F1_15 (not .def_123)) (and (and .def_178 (and .def_48 (and .def_134 (and .def_115 (and .def_150 (and .loc.8 (and .loc.6 (and .loc.5 .def_351)))))))) .def_360))) (and .def_360 (and .def_178 (and .def_134 (and .def_115 (and .def_150 (and .def_46 (and .def_103 (and .loc.8 (and .loc.7 .def_379)))))))))) (and (and .def_50 (and .def_178 (and .def_134 (and .def_115 (and .def_150 (and .loc.12 (and .loc.7 (and .loc.6 (and .loc.5 (and .def_302 (and .def_101 (and .def_299 (and .def_145 (and .def_98 (and .def_95 (and .def_92 (and .def_140 (and .def_296 (and .def_183 (and .def_185 (and .def_89 .def_338))))))))))))))))))))) .def_412)) (and .def_360 (and .def_50 (and .def_115 (and .loc.11 (and .loc.10 (and .loc.9 (and .def_103 (and .loc.7 (and .loc.6 .def_379)))))))))) (and .def_360 (and .def_287 (and .def_50 (and .def_115 (and .loc.11 (and .loc.10 (and .loc.9 (and .def_103 (and .loc.7 (and .loc.6 .def_351))))))))))) (and .def_437 .def_439)) (and (or F1_15 (and .def_317 (= .x.822 (store D_27 Y_27 (store .def_156 .def_307 (+ O_27 .def_308)))))) (and .def_360 (and .def_328 (and .def_50 (and .def_115 (and .def_150 (and .loc.11 (and .loc.10 (and .def_103 (and .loc.7 (and .loc.6 (and .def_302 (and .def_101 (and .def_299 (and .def_145 (and .def_98 (and .def_95 (and .def_92 (and .def_140 (and .def_252 .def_296))))))))))))))))))))) (and .def_412 (and .def_360 (and .def_50 (and .def_115 (and .def_150 (and .loc.11 (and .loc.10 (and .def_46 (and .loc.7 (and .loc.5 (and .def_437 (and .def_302 (and .def_101 (and .def_299 (and .def_145 (and .def_98 (and .def_95 (and .def_92 (and .def_140 (and .def_296 (and .def_183 (and .def_185 .def_470))))))))))))))))))))))) (and .def_360 (and .def_50 (and .def_134 (and .def_115 (and .loc.11 (and .loc.9 (and .def_46 (and .def_103 (and .loc.7 (and .def_437 (and .def_302 (and .def_101 (and .def_299 (and .def_145 (and .def_98 (and .def_95 (and .def_92 (and .def_140 (and .def_296 (and .def_183 (and .def_185 .def_496)))))))))))))))))))))) (and .def_360 (and .def_287 (and .def_50 (and .def_134 (and .def_115 (and .loc.11 (and .loc.9 (and .def_46 (and .def_103 (and .loc.7 (and .def_437 (and .def_302 (and .def_101 (and .def_299 (and .def_145 (and .def_98 (and .def_95 (and .def_92 (and .def_140 (and .def_296 (and .def_183 (and .def_185 .def_520))))))))))))))))))))))) (and .def_545 .def_547)) (and (or F1_15 (and .def_317 (= .x.822 (store D_27 Y_27 (store .def_156 .def_307 .def_311))))) (and .def_360 (and .def_328 (and .def_50 (and .def_134 (and .def_115 (and .def_150 (and .loc.11 (and .def_46 (and .def_103 (and .loc.7 (and .def_437 (and .def_302 (and .def_101 (and .def_299 (and .def_145 (and .def_98 (and .def_95 (and .def_92 (and .def_140 (and .def_296 (and .def_183 (and .def_185 .def_556)))))))))))))))))))))))) (and .def_412 (and .def_360 (and .def_50 (and .def_48 (and .def_134 (and .def_115 (and .def_150 (and .loc.11 (and .loc.6 (and .loc.5 (and .def_437 (and .def_302 (and .def_101 (and .def_299 (and .def_145 (and .def_98 (and .def_545 (and .def_95 (and .def_92 (and .def_140 (and .def_296 (and .def_183 (and .def_185 (and .def_470 .def_547))))))))))))))))))))))))) (and .def_360 (and .def_50 (and .def_178 (and .def_48 (and .def_115 (and .loc.10 (and .loc.9 (and .def_103 (and .loc.6 (and .def_437 (and .def_302 (and .def_101 (and .def_299 (and .def_145 (and .def_98 (and .def_545 (and .def_95 (and .def_92 (and .def_140 (and .def_296 (and .def_183 (and .def_185 (and .def_496 .def_547)))))))))))))))))))))))) (and .def_360 (and .def_287 (and .def_50 (and .def_178 (and .def_48 (and .def_115 (and .loc.10 (and .loc.9 (and .def_103 (and .loc.6 (and .def_437 (and .def_302 (and .def_101 (and .def_299 (and .def_145 (and .def_98 (and .def_545 (and .def_95 (and .def_92 (and .def_140 (and .def_296 (and .def_183 (and .def_185 (and .def_520 .def_547))))))))))))))))))))))))) (and (or F1_15 (and (= .x.822 (store D_27 V_27 (store .def_310 (+ L_27 (* 4 O_27)) 42))) (and .def_317 .def_327))) (and .def_360 (and .def_50 (and .def_178 (and .def_48 (and .def_115 (and .def_150 (and .loc.10 (and .def_103 (and .loc.6 (and .def_437 (and .def_302 (and .def_101 (and .def_299 (and .def_145 (and .def_98 (and .def_545 (and .def_95 (and .def_92 (and .def_140 (and .def_296 (and .def_183 (and .def_185 (and .def_547 .def_556))))))))))))))))))))))))) (and (= J_27 .x.828) (and (= F_27 .x.824) (= H_27 .x.826)))) (and (or F1_15 (and (and (= .x.828 0) (= .x.824 0)) (= F1_0 (store B_27 0 0)))) (and (or E1_27 (and (and (and (and (and (and (and (and (and .def_411 (and (not (<= .x.819 .x.840)) (not (<= .x.819 .x.843)))) (not (= .x.843 0))) (not (= .x.840 0))) (= .x.830 0)) (= .x.846 0)) (= (select F1_0 .x.840) 0)) (= (select .def_722 .x.843) 0)) (= .x.820 (store .def_722 .x.843 1))) (= .x.826 (store (store H_27 .x.840 400000) .x.843 400000)))) (and .def_360 (and .def_50 (and .def_178 (and .def_48 (and .def_115 (and .def_150 (and .loc.10 (and .def_46 (and .loc.5 (and .def_145 (and .def_89 (and .def_142 .def_293))))))))))))))))))))))))))))))))))))))))))))))))))))))))))))))))))))))))))))))))) (state |.x.819| |.x.820| |.x.821| |.x.822| |.x.823| |.x.824| |.x.825| |.x.826| |.x.827| |.x.828| |.x.829| |.x.830| |.x.831| |.x.832| |.x.833| |.x.834| |.x.835| |.x.836| |.x.837| |.x.838| |.x.839| |.x.840| |.x.841| |.x.842| |.x.843| |.x.844| |.x.845| |.x.846| |.x.847| |.x.848| |E1_27| |.loc.9| |.loc.10| |.loc.11| |.loc.12| |.xtv.1|))))
(assert (forall ((|A_27| Int) (|B_27| (Array Int Int)) (|C_27| (Array Int Int)) (|D_27| (Array Int Int)) (|E_27| (Array Int Int)) (|F_27| Int) (|G_27| Int) (|H_27| (Array Int Int)) (|I_27| (Array Int Int)) (|J_27| Int) (|K_27| Int) (|L_27| Int) (|M_27| Int) (|N_27| Int) (|O_27| Int) (|P_27| Int) (|Q_27| Int) (|R_27| Int) (|S_27| Int) (|T_27| Int) (|U_27| Int) (|V_27| Int) (|W_27| Int) (|X_27| Int) (|Y_27| Int) (|Z_27| Int) (|A1_27| Int) (|B1_27| Int) (|C1_27| Int) (|D1_27| Int) (|F1_15| Bool) (|.loc.5| Bool) (|.loc.6| Bool) (|.loc.7| Bool) (|.loc.8| Bool) (|F1_0| (Array Int Int)) (|.x.829| Int) (|.x.827| (Array Int Int)) (|.x.825| Int) (|.x.823| (Array Int Int)) (|.x.819| Int) (|.x.821| (Array Int Int)) (|.x.820| (Array Int Int)) (|E1_27| Bool) (|.x.830| Int) (|.x.834| Int) (|.x.840| Int) (|.x.841| Int) (|.x.843| Int) (|.x.846| Int) (|.loc.10| Bool) (|.x.839| Int) (|.x.831| Int) (|.x.844| Int) (|.loc.11| Bool) (|.loc.9| Bool) (|.x.837| Int) (|.x.836| Int) (|.x.833| Int) (|.x.822| (Array Int Int)) (|.x.838| Int) (|.x.845| Int) (|.x.847| Int) (|.loc.12| Bool) (|.x.848| Int) (|.x.832| Int) (|.x.842| Int) (|.x.835| Int) (|.x.828| Int) (|.x.824| Int) (|.x.826| (Array Int Int)) (|.xtv.1| (Array Int Int))) (=> (state |A_27| |B_27| |C_27| |D_27| |E_27| |F_27| |G_27| |H_27| |I_27| |J_27| |K_27| |L_27| |M_27| |N_27| |O_27| |P_27| |Q_27| |R_27| |S_27| |T_27| |U_27| |V_27| |W_27| |X_27| |Y_27| |Z_27| |A1_27| |B1_27| |C1_27| |D1_27| |F1_15| |.loc.5| |.loc.6| |.loc.7| |.loc.8| |F1_0|) (not (and F1_15 (and .loc.8 (and .loc.7 (and .loc.6 (not .loc.5)))))))))
(check-sat)
